c User generated cnf file
p cnf 7 40
2 -3 2 0 
2 4 -1 0 
4 3 -5 0 
2 7 -1 0 
-6 7 1 0 
-1 6 7 0 
5 7 -4 0 
-2 1 5 0 
6 3 -2 0 
-1 6 6 0 
5 6 -7 0 
1 -6 2 0 
-2 3 7 0 
-7 4 2 0 
4 4 -7 0 
2 5 -7 0 
-1 5 6 0 
-7 6 5 0 
7 -4 6 0 
-5 6 3 0 
6 -3 1 0 
-3 3 1 0 
1 -5 3 0 
7 -5 6 0 
-2 4 5 0 
-1 5 6 0 
-1 1 7 0 
-6 7 6 0 
1 6 -3 0 
2 2 -1 0 
-4 6 5 0 
1 -3 7 0 
-7 6 1 0 
5 4 -4 0 
4 7 -1 0 
7 -4 7 0 
-3 6 4 0 
5 -7 3 0 
-5 7 4 0 
7 -5 4 0 
